HmaxDs = 1.500000
HmaxUB_percent = 1.057506
HmaxUB_real = 5883.274781
FTnetDs = 1.500000
FTnetUB_percent = 1.987166
FTnetUB_real = 16834.593868
TIFgap = 0.400000
LimCIPF = 60.615282
SCIP version 1.1.0 [precision: 8 byte] [memory: block] [mode: optimized] [LP solver: Clp 1.8.2]
Copyright (c) 2002-2008 Konrad-Zuse-Zentrum fuer Informationstechnik Berlin (ZIB)

reading user parameter file </home/fabio/docs/hierarquia/models/scip.set>

read problem <data.N30.I1.s1.cluster1.T5.GL1.W2.TIFgap0.4.mps.gz>
============

original problem has 335 variables (170 bin, 0 int, 0 impl, 165 cont) and 142 constraints

solve problem
=============

presolving:
(round 1) 3 del vars, 3 del conss, 4 chg bounds, 0 chg sides, 40 chg coeffs, 0 upgd conss, 0 impls, 40 clqs
(round 2) 5 del vars, 3 del conss, 4 chg bounds, 1 chg sides, 40 chg coeffs, 0 upgd conss, 0 impls, 40 clqs
(round 3) 5 del vars, 3 del conss, 4 chg bounds, 3 chg sides, 40 chg coeffs, 0 upgd conss, 0 impls, 40 clqs
(round 4) 5 del vars, 4 del conss, 4 chg bounds, 3 chg sides, 40 chg coeffs, 41 upgd conss, 0 impls, 40 clqs
(round 5) 39 del vars, 4 del conss, 4 chg bounds, 3 chg sides, 40 chg coeffs, 41 upgd conss, 2108 impls, 32 clqs
(round 6) 39 del vars, 12 del conss, 4 chg bounds, 3 chg sides, 40 chg coeffs, 41 upgd conss, 2108 impls, 32 clqs
presolving (7 rounds):
 39 deleted vars, 12 deleted constraints, 4 tightened bounds, 0 added holes, 3 changed sides, 40 changed coefficients
 2108 implications, 32 cliques
presolved problem has 296 variables (136 bin, 0 int, 0 impl, 160 cont) and 130 constraints
      1 constraints of type <knapsack>
     32 constraints of type <setppc>
     97 constraints of type <linear>
Presolving Time: 0.04

 time | node  | left  |LP iter| mem |mdpt |frac |vars |cons |ccons|cols |rows |cuts |confs|strbr|  dualbound   | primalbound  |  gap   
  0.1s|     1 |     0 |   101 | 897k|   0 |  49 | 296 | 130 | 130 | 296 | 130 |   0 |   0 |   0 | 3.461261e+01 |      --      |    Inf 
  0.2s|     1 |     0 |   979 | 979k|   0 |  51 | 296 | 130 | 130 | 296 | 150 |  20 |   0 |   0 | 6.566013e+01 |      --      |    Inf 
  0.4s|     1 |     0 |  1263 |1034k|   0 |  59 | 296 | 130 | 130 | 296 | 175 |  45 |   0 |   0 | 3.070464e+03 |      --      |    Inf 
  0.6s|     1 |     0 |  1400 |1080k|   0 |  60 | 296 | 130 | 130 | 296 | 197 |  67 |   0 |   0 | 4.069745e+03 |      --      |    Inf 
  0.9s|     1 |     0 |  1663 |1111k|   0 |  63 | 296 | 130 | 130 | 296 | 226 |  96 |   0 |   0 | 4.930746e+03 |      --      |    Inf 
  1.2s|     1 |     0 |  1867 |1146k|   0 |  58 | 296 | 130 | 130 | 296 | 247 | 117 |   0 |   0 | 5.308825e+03 |      --      |    Inf 
  1.5s|     1 |     0 |  1997 |1168k|   0 |  60 | 296 | 130 | 130 | 296 | 267 | 137 |   0 |   0 | 5.699763e+03 |      --      |    Inf 
  1.7s|     1 |     0 |  2124 |1187k|   0 |  60 | 296 | 130 | 130 | 296 | 279 | 149 |   0 |   0 | 5.717309e+03 |      --      |    Inf 
  1.9s|     1 |     0 |  2282 |1204k|   0 |  64 | 296 | 130 | 130 | 296 | 293 | 163 |   0 |   0 | 5.754914e+03 |      --      |    Inf 
  2.2s|     1 |     0 |  2411 |1222k|   0 |  70 | 296 | 130 | 130 | 296 | 309 | 179 |   0 |   0 | 5.815322e+03 |      --      |    Inf 
  2.6s|     1 |     0 |  2539 |1228k|   0 |  68 | 296 | 130 | 130 | 296 | 315 | 185 |   0 |   0 | 5.885468e+03 |      --      |    Inf 
  2.6s|     1 |     0 |  2577 |1229k|   0 |  75 | 296 | 130 | 130 | 296 | 317 | 187 |   0 |   0 | 5.888365e+03 |      --      |    Inf 
  3.1s|     1 |     2 |  2577 |1231k|   0 |  75 | 296 | 130 | 130 | 296 | 317 | 187 |   0 |  21 | 5.888365e+03 |      --      |    Inf 

SCIP Status        : problem is solved [infeasible]
Solving Time (sec) : 6.67
Solving Nodes      : 15
Primal Bound       : +1.00000000000000e+20 (0 solutions)
Dual Bound         : +1.00000000000000e+20
Gap                : 0.00 %

primal solution:
================

no solution available

Statistics
==========

SCIP Status        : problem is solved [infeasible]
Solving Time       :       6.67
Original Problem   :
  Problem name     : labtel
  Variables        : 335 (170 binary, 0 integer, 0 implicit integer, 165 continuous)
  Constraints      : 142 initial, 142 maximal
Presolved Problem  :
  Problem name     : t_labtel
  Variables        : 296 (136 binary, 0 integer, 0 implicit integer, 160 continuous)
  Constraints      : 130 initial, 130 maximal
Presolvers         :       Time  FixedVars   AggrVars   ChgTypes  ChgBounds   AddHoles    DelCons   ChgSides   ChgCoefs
  trivial          :       0.00          0          0          0          0          0          0          0          0
  dualfix          :       0.00          0          0          0          0          0          0          0          0
  boundshift       :       0.00          0          0          0          0          0          0          0          0
  inttobinary      :       0.00          0          0          0          0          0          0          0          0
  implics          :       0.00          0          0          0          0          0          0          0          0
  probing          :       0.04         34          0          0          0          0          0          0          0
  knapsack         :       0.00          0          0          0          0          0          0          0          0
  setppc           :       0.00          0          0          0          0          0          8          0          0
  linear           :       0.00          0          5          0          4          0          4          3         40
  logicor          :       0.00          0          0          0          0          0          0          0          0
  root node        :          -         60          -          -         60          -          -          -          -
Constraints        :     Number  #Separate #Propagate    #EnfoLP    #EnfoPS    Cutoffs    DomReds       Cuts      Conss   Children
  integral         :          0          0          0         13          0          0         12          0          0         14
  knapsack         :          1         12        384          0          0          0          0          0          0          0
  setppc           :         32         12        384          0          0          0        282          0          0          0
  linear           :         97         12        384          0          0          5         57          2          0          0
  logicor          :          0+         0          1          0          0          0          1          0          0          0
  countsols        :          0          0          0          0          0          0          0          0          0          0
Constraint Timings :  TotalTime   Separate  Propagate     EnfoLP     EnfoPS
  integral         :       3.18       0.00       0.00       3.18       0.00
  knapsack         :       0.00       0.00       0.00       0.00       0.00
  setppc           :       0.00       0.00       0.00       0.00       0.00
  linear           :       0.01       0.00       0.01       0.00       0.00
  logicor          :       0.00       0.00       0.00       0.00       0.00
  countsols        :       0.00       0.00       0.00       0.00       0.00
Propagators        :       Time      Calls    Cutoffs    DomReds
  rootredcost      :       0.00          0          0          0
  pseudoobj        :       0.00         64          1          0
Conflict Analysis  :       Time      Calls    Success  Conflicts   Literals    Reconvs ReconvLits   LP Iters
  propagation      :       0.00          3          1          1        1.0          0        0.0          -
  infeasible LP    :       0.00          4          0          0        0.0          0        0.0          0
  bound exceed. LP :       0.00          0          0          0        0.0          0        0.0          0
  strong branching :       0.00          0          0          0        0.0          0        0.0          0
  pseudo solution  :       0.00          0          0          0        0.0          0        0.0          -
  applied globally :          -          -          -          1        1.0          -          -          -
  applied locally  :          -          -          -          0        0.0          -          -          -
Separators         :       Time      Calls    Cutoffs    DomReds       Cuts      Conss
  cut pool         :       0.00         11          -          -         30          -    (maximal pool size: 327)
  redcost          :       0.00         24          0          0          0          0
  impliedbounds    :       0.00         12          0          0          0          0
  intobj           :       0.00          0          0          0          0          0
  gomory           :       0.09         12          0          0          5          0
  strongcg         :       0.06         12          0          0          0          0
  cmir             :       0.72         10          0          0        297          0
  flowcover        :       1.34         10          0          0         38          0
  clique           :       0.00         12          0          0          0          0
  zerohalf         :       0.00          0          0          0          0          0
  mcf              :       0.00          0          0          0          0          0
Pricers            :       Time      Calls       Vars
  problem variables:       0.00          0          0
Branching Rules    :       Time      Calls    Cutoffs    DomReds       Cuts      Conss   Children
  relpscost        :       3.18         13          0         12          0          0         14
  pscost           :       0.00          0          0          0          0          0          0
  inference        :       0.00          0          0          0          0          0          0
  mostinf          :       0.00          0          0          0          0          0          0
  leastinf         :       0.00          0          0          0          0          0          0
  fullstrong       :       0.00          0          0          0          0          0          0
  allfullstrong    :       0.00          0          0          0          0          0          0
  random           :       0.00          0          0          0          0          0          0
Primal Heuristics  :       Time      Calls      Found
  LP solutions     :       0.00          -          0
  pseudo solutions :       0.00          -          0
  oneopt           :       0.00          0          0
  coefdiving       :       0.00          0          0
  pscostdiving     :       0.00          0          0
  fracdiving       :       0.00          0          0
  veclendiving     :       0.00          0          0
  objpscostdiving  :       0.00          0          0
  rootsoldiving    :       0.00          0          0
  simplerounding   :       0.00          0          0
  rounding         :       0.00         24          0
  shifting         :       0.00         12          0
  intshifting      :       0.01          1          0
  fixandinfer      :       0.00          0          0
  feaspump         :       0.06          1          0
  intdiving        :       0.00          0          0
  actconsdiving    :       0.00          0          0
  linesearchdiving :       0.00          0          0
  guideddiving     :       0.00          0          0
  octane           :       0.00          0          0
  rens             :       0.00          0          0
  rins             :       0.00          0          0
  localbranching   :       0.00          0          0
  mutation         :       0.00          0          0
  crossover        :       0.00          0          0
  dins             :       0.00          0          0
LP                 :       Time      Calls Iterations  Iter/call   Iter/sec
  primal LP        :       0.00          0          0       0.00          -
  dual LP          :       1.15         30       6944     231.47    6038.26
  barrier LP       :       0.00          0          0       0.00          -
  diving/probing LP:       0.05         23        785      34.13   15700.00
  strong branching :       3.18        231      27949     120.99    8788.99
    (at root node) :          -         21       2976     141.71          -
  conflict analysis:       0.00          0          0       0.00          -
B&B Tree           :
  number of runs   :          1
  nodes            :         15
  nodes (total)    :         15
  nodes left       :          0
  max depth        :          5
  max depth (total):          5
  backtracks       :          2 (13.3%)
  delayed cutoffs  :          0
  repropagations   :          5 (17 domain reductions, 0 cutoffs)
  avg switch length:       2.67
  switching time   :       0.00
Solution           :
  Solutions found  :          0 (0 improvements)
  Primal Bound     : infeasible
  Dual Bound       :          -
  Gap              :       0.00 %
  Root Dual Bound  : +5.88836548427045e+03
